NAME : kroA150
TYPE : OP
DIMENSION : 150
COST_LIMIT : 19893
ROUTE_NODES : 115
ROUTE_SCORE : 6855
ROUTE_COST : 19884
NODE_SEQUENCE_SECTION
1
93
28
142
105
67
108
61
25
81
69
64
40
54
144
44
50
116
82
126
95
13
76
33
146
103
37
5
52
78
96
39
101
121
30
107
112
132
29
46
3
43
123
115
120
149
55
83
34
135
140
125
51
87
145
57
20
27
86
35
150
62
60
77
110
23
98
91
45
32
11
15
17
141
59
74
21
72
10
84
99
102
111
104
38
24
18
94
22
16
88
137
79
106
90
6
49
19
4
65
66
26
124
118
119
143
56
139
122
42
89
138
133
8
130
-1
DEPOT_SECTION
1
-1
EOF
